sat
(:binary-propagations  400
 :decisions            780
 :del-clause           200
 :final-checks         6
 :max-generation       1
 :max-memory           24.60
 :memory               21.36
 :mk-bool-var          1000
 :mk-clause            300
 :mk-clause-binary     600
 :num-allocs           21801442
 :num-checks           1
 :propagations         620
 :quant-instantiations 200
 :restarts             5
 :rlimit-count         444856
 :time                 0.09)
